c preprocessed version of RandomNewmanWattsStrogatz_100_5_3, 99 vertices, 267 edges
p td 99 267
0 1
0 2
0 20
0 93
0 94
1 2
1 6
1 3
1 92
1 94
2 3
2 67
3 4
3 67
3 66
5 4
30 4
4 31
4 32
6 5
28 5
29 5
5 30
7 6
18 6
6 19
6 20
6 26
6 29
8 7
16 7
17 7
7 18
9 8
12 8
8 13
8 14
8 75
8 77
10 9
11 9
9 12
68 9
10 11
10 19
10 38
70 10
71 10
11 12
11 46
11 56
71 11
12 13
12 29
13 14
13 15
13 73
14 15
14 16
14 26
14 52
15 16
15 17
71 15
16 17
16 47
17 18
18 19
19 20
19 21
19 49
20 21
20 22
20 85
21 22
21 23
21 27
21 56
21 92
22 23
22 24
22 59
23 24
23 25
24 25
24 26
68 24
25 26
25 27
26 27
26 28
27 28
27 29
27 48
28 29
28 48
29 30
29 62
30 31
30 64
30 74
31 32
31 33
68 31
32 33
32 34
32 93
33 34
33 35
33 60
33 74
69 33
71 33
34 35
34 36
34 52
35 36
35 37
36 37
36 38
36 76
36 78
68 36
37 38
37 39
37 62
38 39
38 40
38 49
39 40
39 41
39 74
40 41
40 42
40 79
41 42
41 43
41 72
42 43
42 44
43 44
43 45
43 87
70 43
44 45
44 46
45 46
45 47
46 47
46 48
47 48
47 49
47 57
48 49
48 50
48 52
48 81
49 50
49 51
50 51
50 52
51 52
51 89
69 51
52 53
52 92
54 53
72 53
53 73
53 74
55 54
65 54
54 72
56 55
64 55
55 65
57 56
62 56
63 56
56 64
56 78
58 57
59 57
57 60
57 61
58 59
59 60
60 61
60 62
61 62
61 63
62 63
63 64
64 65
64 93
66 65
65 72
67 66
66 68
66 69
67 68
68 69
68 70
69 70
69 71
70 71
72 73
72 88
73 74
73 75
74 75
74 76
74 77
74 80
75 76
75 77
76 77
76 78
77 78
77 79
78 79
78 80
79 80
79 81
80 81
80 82
81 82
81 83
82 83
82 84
83 84
83 85
84 85
84 86
85 86
85 87
86 87
86 88
87 88
87 89
88 89
88 90
89 90
89 91
90 91
90 92
91 92
91 93
92 93
92 94
93 94
95 98
95 32
95 52
95 96
95 97
96 98
96 97
96 58
96 85
97 98
97 1
97 58
97 59
98 51
98 52
98 62
